100000000 30
68877989 64303218
51069792 97009477
73459203 87098821
33049233 37901020
47918912 72758153
2524479 3488603
38247464 64180206
43266997 63035618
13369051 17200305
463465 646443
53716411 77029435
37886623 47998467
60937787 75560245
73428601 113693956
26613297 48629480
24968544 39029032
26151826 29708477
18255781 26846539
42730162 54906762
201374 237700
59103221 112210529
51460685 96117967
52156232 48880526
16201109 26679726
65372950 100569932
30789968 46934460
9567590 18886394
23397152 31402292
22253737 38720599
36974702 56701717
